NAME : n60w140.005.460.tour
COMMENT : Length = 460
COMMENT : Found by LKH [Keld Helsgaun] Tue May  2 05:19:05 2017
TYPE : TOUR
DIMENSION : 61
TOUR_SECTION
1
32
50
13
12
36
18
56
60
39
21
34
25
47
10
5
3
8
52
35
2
42
46
29
6
31
4
30
41
26
49
11
15
14
20
22
37
7
51
17
40
44
58
27
38
9
54
24
55
53
45
59
61
16
43
19
23
48
33
57
28
-1
EOF
